\ Model vert
\ LP format - for model browsing. Use MPS format to capture full model detail.
Minimize
  441397.3203839188 S_coef + 3247.460723216634 Constant + [
   2.9997529e+07 S_coef ^2 ] / 2 
Subject To
Bounds
 -1000 <= S_coef <= 0
 Constant = 1
End
